WARNING: for repeatability, setting FPU to use double precision
============================[ Problem Statistics ]=============================
|                                                                             |
|  Number of variables:        521179                                         |
|  Number of clauses:        13378616                                         |
|  Parse time:                   2.67 s                                       |
|                                                                             |
============================[ Search Statistics ]==============================
| Conflicts |          ORIGINAL         |          LEARNT          | Progress |
|           |    Vars  Clauses Literals |    Limit  Clauses Lit/Cl |          |
===============================================================================
|       100 |  521173 13378580 39204830 |  4905479      100     29 |  0.001 % |
|       250 |  521173 13378580 39204830 |  5396027      250     75 |  0.001 % |
|       475 |  521173 13378580 39204830 |  5935629      475     80 |  0.001 % |
|       812 |  521173 13378580 39204830 |  6529192      812     78 |  0.001 % |
|      1318 |  521173 13378580 39204830 |  7182112     1318     69 |  0.001 % |
|      2077 |  521173 13378580 39204830 |  7900323     2077     61 |  0.001 % |
|      3216 |  521173 13378580 39204830 |  8690355     3216     63 |  0.001 % |
|      4924 |  521173 13378580 39204830 |  9559391     4924     59 |  0.001 % |
|      7486 |  521173 13378580 39204830 | 10515330     7486     55 |  0.001 % |
|     11330 |  521173 13378580 39204830 | 11566863    11330     53 |  0.001 % |
|     17096 |  521173 13378580 39204830 | 12723550    17096     54 |  0.001 % |
|     25745 |  521172 13378569 39204807 | 13995905    25744     63 |  0.001 % |
===============================================================================
restarts              : 123
conflicts             : 32826          (904 /sec)
decisions             : 3233513        (0.00 % random) (89053 /sec)
propagations          : 263232918      (7249598 /sec)
conflict literals     : 2064597        (15.25 % deleted)
Memory used           : 769.00 MB
CPU time              : 36.31 s

SATISFIABLE
